p cnf 955 2449
51 -2 -689 0
-51 2 0
-51 689 0
52 -51 -3 0
-52 51 0
-52 3 0
53 -690 -4 0
-53 690 0
-53 4 0
54 -53 -691 0
-54 53 0
-54 691 0
55 -692 -693 0
-55 692 0
-55 693 0
56 -694 -690 0
-56 694 0
-56 690 0
57 -56 -8 0
-57 56 0
-57 8 0
58 -695 -55 0
-58 695 0
-58 55 0
59 -696 -691 0
-59 696 0
-59 691 0
60 -59 -10 0
-60 59 0
-60 10 0
61 -697 -58 0
-61 697 0
-61 58 0
62 -12 -11 0
-62 12 0
-62 11 0
63 -62 -13 0
-63 62 0
-63 13 0
64 -698 -61 0
-64 698 0
-64 61 0
65 -699 -696 0
-65 699 0
-65 696 0
66 -65 -15 0
-66 65 0
-66 15 0
67 -700 -64 0
-67 700 0
-67 64 0
68 -701 -702 0
-68 701 0
-68 702 0
69 -68 -703 0
-69 68 0
-69 703 0
70 -704 -67 0
-70 704 0
-70 67 0
71 -705 -706 0
-71 705 0
-71 706 0
72 -71 -707 0
-72 71 0
-72 707 0
73 -708 -70 0
-73 708 0
-73 70 0
74 -23 -709 0
-74 23 0
-74 709 0
75 -74 -24 0
-75 74 0
-75 24 0
76 -710 -73 0
-76 710 0
-76 73 0
77 -23 -5 0
-77 23 0
-77 5 0
78 -77 -711 0
-78 77 0
-78 711 0
79 -712 -76 0
-79 712 0
-79 76 0
80 -702 -7 0
-80 702 0
-80 7 0
81 -80 -26 0
-81 80 0
-81 26 0
82 -713 -79 0
-82 713 0
-82 79 0
83 -26 -2 0
-83 26 0
-83 2 0
84 -83 -27 0
-84 83 0
-84 27 0
85 -714 -82 0
-85 714 0
-85 82 0
86 -702 -694 0
-86 702 0
-86 694 0
87 -86 -19 0
-87 86 0
-87 19 0
88 -715 -85 0
-88 715 0
-88 85 0
89 -24 -22 0
-89 24 0
-89 22 0
90 -89 -716 0
-90 89 0
-90 716 0
91 -717 -88 0
-91 717 0
-91 88 0
92 -718 -7 0
-92 718 0
-92 7 0
93 -92 -29 0
-93 92 0
-93 29 0
94 -719 -91 0
-94 719 0
-94 91 0
95 -718 -720 0
-95 718 0
-95 720 0
96 -95 -716 0
-96 95 0
-96 716 0
97 -721 -94 0
-97 721 0
-97 94 0
98 -711 -7 0
-98 711 0
-98 7 0
99 -98 -27 0
-99 98 0
-99 27 0
100 -722 -97 0
-100 722 0
-100 97 0
101 -723 -694 0
-101 723 0
-101 694 0
102 -101 -716 0
-102 101 0
-102 716 0
103 -724 -100 0
-103 724 0
-103 100 0
104 -725 -726 0
-104 725 0
-104 726 0
105 -104 -727 0
-105 104 0
-105 727 0
106 -728 -103 0
-106 728 0
-106 103 0
107 -705 -729 0
-107 705 0
-107 729 0
108 -107 -730 0
-108 107 0
-108 730 0
109 -731 -106 0
-109 731 0
-109 106 0
110 -727 -1 0
-110 727 0
-110 1 0
111 -110 -730 0
-111 110 0
-111 730 0
112 -732 -109 0
-112 732 0
-112 109 0
113 -718 -23 0
-113 718 0
-113 23 0
114 -113 -733 0
-114 113 0
-114 733 0
115 -734 -112 0
-115 734 0
-115 112 0
116 -707 -706 0
-116 707 0
-116 706 0
117 -116 -735 0
-117 116 0
-117 735 0
118 -736 -115 0
-118 736 0
-118 115 0
119 -718 -694 0
-119 718 0
-119 694 0
120 -119 -737 0
-120 119 0
-120 737 0
121 -738 -118 0
-121 738 0
-121 118 0
122 -739 -5 0
-122 739 0
-122 5 0
123 -122 -13 0
-123 122 0
-123 13 0
124 -740 -121 0
-124 740 0
-124 121 0
125 -36 -702 0
-125 36 0
-125 702 0
126 -125 -741 0
-126 125 0
-126 741 0
127 -742 -124 0
-127 742 0
-127 124 0
128 -38 -725 0
-128 38 0
-128 725 0
129 -128 -32 0
-129 128 0
-129 32 0
130 -743 -127 0
-130 743 0
-130 127 0
131 -29 -744 0
-131 29 0
-131 744 0
132 -131 -730 0
-132 131 0
-132 730 0
133 -745 -130 0
-133 745 0
-133 130 0
134 -29 -720 0
-134 29 0
-134 720 0
135 -134 -14 0
-135 134 0
-135 14 0
136 -746 -133 0
-136 746 0
-136 133 0
137 -747 -38 0
-137 747 0
-137 38 0
138 -137 -691 0
-138 137 0
-138 691 0
139 -748 -136 0
-139 748 0
-139 136 0
140 -696 -4 0
-140 696 0
-140 4 0
141 -140 -40 0
-141 140 0
-141 40 0
142 -749 -139 0
-142 749 0
-142 139 0
143 -13 -8 0
-143 13 0
-143 8 0
144 -143 -34 0
-144 143 0
-144 34 0
145 -750 -142 0
-145 750 0
-145 142 0
146 -751 -739 0
-146 751 0
-146 739 0
147 -146 -41 0
-147 146 0
-147 41 0
148 -752 -145 0
-148 752 0
-148 145 0
149 -42 -691 0
-149 42 0
-149 691 0
150 -149 -43 0
-150 149 0
-150 43 0
151 -753 -148 0
-151 753 0
-151 148 0
152 -44 -1 0
-152 44 0
-152 1 0
153 -152 -18 0
-153 152 0
-153 18 0
154 -754 -151 0
-154 754 0
-154 151 0
155 -755 -12 0
-155 755 0
-155 12 0
156 -155 -34 0
-156 155 0
-156 34 0
157 -756 -154 0
-157 756 0
-157 154 0
158 -16 -757 0
-158 16 0
-158 757 0
159 -158 -711 0
-159 158 0
-159 711 0
160 -758 -157 0
-160 758 0
-160 157 0
161 -711 -14 0
-161 711 0
-161 14 0
162 -161 -759 0
-162 161 0
-162 759 0
163 -760 -160 0
-163 760 0
-163 160 0
164 -28 -26 0
-164 28 0
-164 26 0
165 -164 -43 0
-165 164 0
-165 43 0
166 -761 -163 0
-166 761 0
-166 163 0
167 -762 -2 0
-167 762 0
-167 2 0
168 -167 -31 0
-168 167 0
-168 31 0
169 -763 -166 0
-169 763 0
-169 166 0
170 -764 -765 0
-170 764 0
-170 765 0
171 -170 -730 0
-171 170 0
-171 730 0
172 -766 -169 0
-172 766 0
-172 169 0
173 -39 -757 0
-173 39 0
-173 757 0
174 -173 -723 0
-174 173 0
-174 723 0
175 -767 -172 0
-175 767 0
-175 172 0
176 -705 -6 0
-176 705 0
-176 6 0
177 -176 -34 0
-177 176 0
-177 34 0
178 -768 -175 0
-178 768 0
-178 175 0
179 -711 -701 0
-179 711 0
-179 701 0
180 -179 -769 0
-180 179 0
-180 769 0
181 -770 -178 0
-181 770 0
-181 178 0
182 -48 -744 0
-182 48 0
-182 744 0
183 -182 -13 0
-183 182 0
-183 13 0
184 -771 -181 0
-184 771 0
-184 181 0
185 -690 -1 0
-185 690 0
-185 1 0
186 -185 -42 0
-186 185 0
-186 42 0
187 -772 -184 0
-187 772 0
-187 184 0
188 -773 -21 0
-188 773 0
-188 21 0
189 -188 -15 0
-189 188 0
-189 15 0
190 -774 -187 0
-190 774 0
-190 187 0
191 -769 -718 0
-191 769 0
-191 718 0
192 -191 -44 0
-192 191 0
-192 44 0
193 -775 -190 0
-193 775 0
-193 190 0
194 -46 -26 0
-194 46 0
-194 26 0
195 -194 -776 0
-195 194 0
-195 776 0
196 -777 -193 0
-196 777 0
-196 193 0
197 -4 -765 0
-197 4 0
-197 765 0
198 -197 -778 0
-198 197 0
-198 778 0
199 -779 -196 0
-199 779 0
-199 196 0
200 -780 -5 0
-200 780 0
-200 5 0
201 -200 -696 0
-201 200 0
-201 696 0
202 -781 -199 0
-202 781 0
-202 199 0
203 -191 -18 0
-203 191 0
-203 18 0
204 -782 -202 0
-204 782 0
-204 202 0
205 -17 -16 0
-205 17 0
-205 16 0
206 -205 -38 0
-206 205 0
-206 38 0
207 -783 -204 0
-207 783 0
-207 204 0
208 -764 -751 0
-208 764 0
-208 751 0
209 -208 -759 0
-209 208 0
-209 759 0
210 -784 -207 0
-210 784 0
-210 207 0
211 -762 -42 0
-211 762 0
-211 42 0
212 -211 -10 0
-212 211 0
-212 10 0
213 -785 -210 0
-213 785 0
-213 210 0
214 -776 -705 0
-214 776 0
-214 705 0
215 -214 -31 0
-215 214 0
-215 31 0
216 -786 -213 0
-216 786 0
-216 213 0
217 -38 -33 0
-217 38 0
-217 33 0
218 -217 -13 0
-218 217 0
-218 13 0
219 -787 -216 0
-219 787 0
-219 216 0
220 -45 -9 0
-220 45 0
-220 9 0
221 -220 -44 0
-221 220 0
-221 44 0
222 -788 -219 0
-222 788 0
-222 219 0
223 -46 -38 0
-223 46 0
-223 38 0
224 -223 -21 0
-224 223 0
-224 21 0
225 -789 -222 0
-225 789 0
-225 222 0
226 -48 -5 0
-226 48 0
-226 5 0
227 -226 -689 0
-227 226 0
-227 689 0
228 -790 -225 0
-228 790 0
-228 225 0
229 -773 -716 0
-229 773 0
-229 716 0
230 -229 -34 0
-230 229 0
-230 34 0
231 -791 -228 0
-231 791 0
-231 228 0
232 -764 -16 0
-232 764 0
-232 16 0
233 -232 -723 0
-233 232 0
-233 723 0
234 -792 -231 0
-234 792 0
-234 231 0
235 -104 -40 0
-235 104 0
-235 40 0
236 -793 -234 0
-236 793 0
-236 234 0
237 -769 -737 0
-237 769 0
-237 737 0
238 -237 -794 0
-238 237 0
-238 794 0
239 -795 -236 0
-239 795 0
-239 236 0
240 -796 -13 0
-240 796 0
-240 13 0
241 -240 -30 0
-241 240 0
-241 30 0
242 -797 -239 0
-242 797 0
-242 239 0
243 -50 -702 0
-243 50 0
-243 702 0
244 -243 -37 0
-244 243 0
-244 37 0
245 -798 -242 0
-245 798 0
-245 242 0
246 -47 -21 0
-246 47 0
-246 21 0
247 -246 -735 0
-247 246 0
-247 735 0
248 -799 -245 0
-248 799 0
-248 245 0
249 -21 -20 0
-249 21 0
-249 20 0
250 -249 -34 0
-250 249 0
-250 34 0
251 -800 -248 0
-251 800 0
-251 248 0
252 -9 -1 0
-252 9 0
-252 1 0
253 -252 -26 0
-253 252 0
-253 26 0
254 -801 -251 0
-254 801 0
-254 251 0
255 -39 -36 0
-255 39 0
-255 36 0
256 -255 -47 0
-256 255 0
-256 47 0
257 -802 -254 0
-257 802 0
-257 254 0
258 -803 -711 0
-258 803 0
-258 711 0
259 -258 -776 0
-259 258 0
-259 776 0
260 -804 -257 0
-260 804 0
-260 257 0
261 -48 -709 0
-261 48 0
-261 709 0
262 -261 -764 0
-262 261 0
-262 764 0
263 -805 -260 0
-263 805 0
-263 260 0
264 -16 -13 0
-264 16 0
-264 13 0
265 -264 -723 0
-265 264 0
-265 723 0
266 -806 -263 0
-266 806 0
-266 263 0
267 -47 -6 0
-267 47 0
-267 6 0
268 -267 -703 0
-268 267 0
-268 703 0
269 -807 -266 0
-269 807 0
-269 266 0
270 -39 -16 0
-270 39 0
-270 16 0
271 -270 -32 0
-271 270 0
-271 32 0
272 -808 -269 0
-272 808 0
-272 269 0
273 -8 -690 0
-273 8 0
-273 690 0
274 -273 -751 0
-274 273 0
-274 751 0
275 -809 -272 0
-275 809 0
-275 272 0
276 -50 -21 0
-276 50 0
-276 21 0
277 -276 -727 0
-277 276 0
-277 727 0
278 -810 -275 0
-278 810 0
-278 275 0
279 -723 -706 0
-279 723 0
-279 706 0
280 -279 -3 0
-280 279 0
-280 3 0
281 -811 -278 0
-281 811 0
-281 278 0
282 -38 -22 0
-282 38 0
-282 22 0
283 -282 -40 0
-283 282 0
-283 40 0
284 -812 -281 0
-284 812 0
-284 281 0
285 -813 -729 0
-285 813 0
-285 729 0
286 -285 -18 0
-286 285 0
-286 18 0
287 -814 -284 0
-287 814 0
-287 284 0
288 -755 -7 0
-288 755 0
-288 7 0
289 -288 -691 0
-289 288 0
-289 691 0
290 -815 -287 0
-290 815 0
-290 287 0
291 -25 -8 0
-291 25 0
-291 8 0
292 -291 -765 0
-292 291 0
-292 765 0
293 -816 -290 0
-293 816 0
-293 290 0
294 -22 -21 0
-294 22 0
-294 21 0
295 -294 -34 0
-295 294 0
-295 34 0
296 -817 -293 0
-296 817 0
-296 293 0
297 -737 -28 0
-297 737 0
-297 28 0
298 -297 -18 0
-298 297 0
-298 18 0
299 -818 -296 0
-299 818 0
-299 296 0
300 -36 -17 0
-300 36 0
-300 17 0
301 -300 -819 0
-301 300 0
-301 819 0
302 -820 -299 0
-302 820 0
-302 299 0
303 -35 -707 0
-303 35 0
-303 707 0
304 -303 -50 0
-304 303 0
-304 50 0
305 -821 -302 0
-305 821 0
-305 302 0
306 -29 -705 0
-306 29 0
-306 705 0
307 -306 -822 0
-307 306 0
-307 822 0
308 -823 -305 0
-308 823 0
-308 305 0
309 -822 -1 0
-309 822 0
-309 1 0
310 -309 -723 0
-310 309 0
-310 723 0
311 -824 -308 0
-311 824 0
-311 308 0
312 -41 -7 0
-312 41 0
-312 7 0
313 -312 -730 0
-313 312 0
-313 730 0
314 -825 -311 0
-314 825 0
-314 311 0
315 -46 -696 0
-315 46 0
-315 696 0
316 -315 -726 0
-316 315 0
-316 726 0
317 -826 -314 0
-317 826 0
-317 314 0
318 -827 -701 0
-318 827 0
-318 701 0
319 -318 -34 0
-319 318 0
-319 34 0
320 -828 -317 0
-320 828 0
-320 317 0
321 -48 -751 0
-321 48 0
-321 751 0
322 -321 -3 0
-322 321 0
-322 3 0
323 -829 -320 0
-323 829 0
-323 320 0
324 -39 -689 0
-324 39 0
-324 689 0
325 -324 -705 0
-325 324 0
-325 705 0
326 -830 -323 0
-326 830 0
-326 323 0
327 -23 -705 0
-327 23 0
-327 705 0
328 -327 -2 0
-328 327 0
-328 2 0
329 -831 -326 0
-329 831 0
-329 326 0
330 -705 -14 0
-330 705 0
-330 14 0
331 -330 -26 0
-331 330 0
-331 26 0
332 -832 -329 0
-332 832 0
-332 329 0
333 -733 -21 0
-333 733 0
-333 21 0
334 -333 -13 0
-334 333 0
-334 13 0
335 -833 -332 0
-335 833 0
-335 332 0
336 -803 -720 0
-336 803 0
-336 720 0
337 -336 -30 0
-337 336 0
-337 30 0
338 -834 -335 0
-338 834 0
-338 335 0
339 -17 -729 0
-339 17 0
-339 729 0
340 -339 -813 0
-340 339 0
-340 813 0
341 -835 -338 0
-341 835 0
-341 338 0
342 -762 -803 0
-342 762 0
-342 803 0
343 -342 -44 0
-343 342 0
-343 44 0
344 -836 -341 0
-344 836 0
-344 341 0
345 -35 -19 0
-345 35 0
-345 19 0
346 -345 -819 0
-346 345 0
-346 819 0
347 -837 -344 0
-347 837 0
-347 344 0
348 -24 -17 0
-348 24 0
-348 17 0
349 -348 -730 0
-349 348 0
-349 730 0
350 -838 -347 0
-350 838 0
-350 347 0
351 -696 -8 0
-351 696 0
-351 8 0
352 -351 -727 0
-352 351 0
-352 727 0
353 -839 -350 0
-353 839 0
-353 350 0
354 -803 -4 0
-354 803 0
-354 4 0
355 -354 -31 0
-355 354 0
-355 31 0
356 -840 -353 0
-356 840 0
-356 353 0
357 -27 -706 0
-357 27 0
-357 706 0
358 -357 -776 0
-358 357 0
-358 776 0
359 -841 -356 0
-359 841 0
-359 356 0
360 -733 -842 0
-360 733 0
-360 842 0
361 -360 -759 0
-361 360 0
-361 759 0
362 -843 -359 0
-362 843 0
-362 359 0
363 -23 -4 0
-363 23 0
-363 4 0
364 -363 -796 0
-364 363 0
-364 796 0
365 -844 -362 0
-365 844 0
-365 362 0
366 -747 -17 0
-366 747 0
-366 17 0
367 -366 -827 0
-367 366 0
-367 827 0
368 -845 -365 0
-368 845 0
-368 365 0
369 -803 -15 0
-369 803 0
-369 15 0
370 -369 -26 0
-370 369 0
-370 26 0
371 -846 -368 0
-371 846 0
-371 368 0
372 -718 -12 0
-372 718 0
-372 12 0
373 -372 -15 0
-373 372 0
-373 15 0
374 -847 -371 0
-374 847 0
-374 371 0
375 -819 -706 0
-375 819 0
-375 706 0
376 -375 -735 0
-376 375 0
-376 735 0
377 -848 -374 0
-377 848 0
-377 374 0
378 -733 -707 0
-378 733 0
-378 707 0
379 -378 -725 0
-379 378 0
-379 725 0
380 -849 -377 0
-380 849 0
-380 377 0
381 -764 -14 0
-381 764 0
-381 14 0
382 -381 -776 0
-382 381 0
-382 776 0
383 -850 -380 0
-383 850 0
-383 380 0
384 -37 -35 0
-384 37 0
-384 35 0
385 -384 -34 0
-385 384 0
-385 34 0
386 -851 -383 0
-386 851 0
-386 383 0
387 -813 -822 0
-387 813 0
-387 822 0
388 -387 -703 0
-388 387 0
-388 703 0
389 -852 -386 0
-389 852 0
-389 386 0
390 -56 -27 0
-390 56 0
-390 27 0
391 -853 -389 0
-391 853 0
-391 389 0
392 -152 -703 0
-392 152 0
-392 703 0
393 -854 -391 0
-393 854 0
-393 391 0
394 -699 -716 0
-394 699 0
-394 716 0
395 -394 -37 0
-395 394 0
-395 37 0
396 -855 -393 0
-396 855 0
-396 393 0
397 -49 -45 0
-397 49 0
-397 45 0
398 -397 -703 0
-398 397 0
-398 703 0
399 -856 -396 0
-399 856 0
-399 396 0
400 -23 -702 0
-400 23 0
-400 702 0
401 -400 -47 0
-401 400 0
-401 47 0
402 -857 -399 0
-402 857 0
-402 399 0
403 -44 -15 0
-403 44 0
-403 15 0
404 -403 -34 0
-404 403 0
-404 34 0
405 -858 -402 0
-405 858 0
-405 402 0
406 -705 -696 0
-406 705 0
-406 696 0
407 -406 -47 0
-407 406 0
-407 47 0
408 -859 -405 0
-408 859 0
-408 405 0
409 -707 -729 0
-409 707 0
-409 729 0
410 -409 -43 0
-410 409 0
-410 43 0
411 -860 -408 0
-411 860 0
-411 408 0
412 -11 -689 0
-412 11 0
-412 689 0
413 -412 -3 0
-413 412 0
-413 3 0
414 -861 -411 0
-414 861 0
-414 411 0
415 -50 -11 0
-415 50 0
-415 11 0
416 -415 -703 0
-416 415 0
-416 703 0
417 -862 -414 0
-417 862 0
-417 414 0
418 -28 -711 0
-418 28 0
-418 711 0
419 -418 -765 0
-419 418 0
-419 765 0
420 -863 -417 0
-420 863 0
-420 417 0
421 -744 -7 0
-421 744 0
-421 7 0
422 -421 -741 0
-422 421 0
-422 741 0
423 -864 -420 0
-423 864 0
-423 420 0
424 -701 -9 0
-424 701 0
-424 9 0
425 -424 -13 0
-425 424 0
-425 13 0
426 -865 -423 0
-426 865 0
-426 423 0
427 -15 -12 0
-427 15 0
-427 12 0
428 -427 -819 0
-428 427 0
-428 819 0
429 -866 -426 0
-429 866 0
-429 426 0
430 -707 -744 0
-430 707 0
-430 744 0
431 -430 -15 0
-431 430 0
-431 15 0
432 -867 -429 0
-432 867 0
-432 429 0
433 -47 -723 0
-433 47 0
-433 723 0
434 -433 -44 0
-434 433 0
-434 44 0
435 -868 -432 0
-435 868 0
-435 432 0
436 -26 -729 0
-436 26 0
-436 729 0
437 -436 -32 0
-437 436 0
-437 32 0
438 -869 -435 0
-438 869 0
-438 435 0
439 -747 -6 0
-439 747 0
-439 6 0
440 -439 -730 0
-440 439 0
-440 730 0
441 -870 -438 0
-441 870 0
-441 438 0
442 -49 -699 0
-442 49 0
-442 699 0
443 -442 -735 0
-443 442 0
-443 735 0
444 -871 -441 0
-444 871 0
-444 441 0
445 -46 -21 0
-445 46 0
-445 21 0
446 -445 -26 0
-446 445 0
-446 26 0
447 -872 -444 0
-447 872 0
-447 444 0
448 -48 -765 0
-448 48 0
-448 765 0
449 -448 -27 0
-449 448 0
-449 27 0
450 -873 -447 0
-450 873 0
-450 447 0
451 -769 -709 0
-451 769 0
-451 709 0
452 -451 -43 0
-452 451 0
-452 43 0
453 -874 -450 0
-453 874 0
-453 450 0
454 -28 -17 0
-454 28 0
-454 17 0
455 -454 -699 0
-455 454 0
-455 699 0
456 -875 -453 0
-456 875 0
-456 453 0
457 -43 -3 0
-457 43 0
-457 3 0
458 -457 -727 0
-458 457 0
-458 727 0
459 -876 -456 0
-459 876 0
-459 456 0
460 -49 -701 0
-460 49 0
-460 701 0
461 -460 -42 0
-461 460 0
-461 42 0
462 -877 -459 0
-462 877 0
-462 459 0
463 -50 -36 0
-463 50 0
-463 36 0
464 -463 -18 0
-464 463 0
-464 18 0
465 -878 -462 0
-465 878 0
-465 462 0
466 -30 -9 0
-466 30 0
-466 9 0
467 -466 -735 0
-467 466 0
-467 735 0
468 -879 -465 0
-468 879 0
-468 465 0
469 -38 -765 0
-469 38 0
-469 765 0
470 -469 -764 0
-470 469 0
-470 764 0
471 -880 -468 0
-471 880 0
-471 468 0
472 -45 -709 0
-472 45 0
-472 709 0
473 -472 -42 0
-473 472 0
-473 42 0
474 -881 -471 0
-474 881 0
-474 471 0
475 -37 -26 0
-475 37 0
-475 26 0
476 -475 -735 0
-476 475 0
-476 735 0
477 -882 -474 0
-477 882 0
-477 474 0
478 -270 -794 0
-478 270 0
-478 794 0
479 -883 -477 0
-479 883 0
-479 477 0
480 -47 -13 0
-480 47 0
-480 13 0
481 -480 -796 0
-481 480 0
-481 796 0
482 -884 -479 0
-482 884 0
-482 479 0
483 -776 -716 0
-483 776 0
-483 716 0
484 -483 -31 0
-484 483 0
-484 31 0
485 -885 -482 0
-485 885 0
-485 482 0
486 -19 -690 0
-486 19 0
-486 690 0
487 -486 -50 0
-487 486 0
-487 50 0
488 -886 -485 0
-488 886 0
-488 485 0
489 -29 -707 0
-489 29 0
-489 707 0
490 -489 -26 0
-490 489 0
-490 26 0
491 -887 -488 0
-491 887 0
-491 488 0
492 -16 -8 0
-492 16 0
-492 8 0
493 -492 -50 0
-493 492 0
-493 50 0
494 -888 -491 0
-494 888 0
-494 491 0
495 -822 -17 0
-495 822 0
-495 17 0
496 -495 -723 0
-496 495 0
-496 723 0
497 -889 -494 0
-497 889 0
-497 494 0
498 -164 -723 0
-498 164 0
-498 723 0
499 -890 -497 0
-499 890 0
-499 497 0
500 -40 -13 0
-500 40 0
-500 13 0
501 -500 -31 0
-501 500 0
-501 31 0
502 -891 -499 0
-502 891 0
-502 499 0
503 -709 -12 0
-503 709 0
-503 12 0
504 -503 -14 0
-504 503 0
-504 14 0
505 -892 -502 0
-505 892 0
-505 502 0
506 -33 -19 0
-506 33 0
-506 19 0
507 -506 -32 0
-507 506 0
-507 32 0
508 -893 -505 0
-508 893 0
-508 505 0
509 -179 -13 0
-509 179 0
-509 13 0
510 -894 -508 0
-510 894 0
-510 508 0
511 -769 -702 0
-511 769 0
-511 702 0
512 -511 -730 0
-512 511 0
-512 730 0
513 -895 -510 0
-513 895 0
-513 510 0
514 -44 -37 0
-514 44 0
-514 37 0
515 -514 -32 0
-515 514 0
-515 32 0
516 -896 -513 0
-516 896 0
-516 513 0
517 -764 -794 0
-517 764 0
-517 794 0
518 -517 -691 0
-518 517 0
-518 691 0
519 -897 -516 0
-519 897 0
-519 516 0
520 -755 -28 0
-520 755 0
-520 28 0
521 -520 -827 0
-521 520 0
-521 827 0
522 -898 -519 0
-522 898 0
-522 519 0
523 -699 -1 0
-523 699 0
-523 1 0
524 -523 -730 0
-524 523 0
-524 730 0
525 -899 -522 0
-525 899 0
-525 522 0
526 -780 -702 0
-526 780 0
-526 702 0
527 -526 -34 0
-527 526 0
-527 34 0
528 -900 -525 0
-528 900 0
-528 525 0
529 -16 -694 0
-529 16 0
-529 694 0
530 -529 -690 0
-530 529 0
-530 690 0
531 -901 -528 0
-531 901 0
-531 528 0
532 -42 -38 0
-532 42 0
-532 38 0
533 -532 -35 0
-533 532 0
-533 35 0
534 -902 -531 0
-534 902 0
-534 531 0
535 -764 -2 0
-535 764 0
-535 2 0
536 -535 -794 0
-536 535 0
-536 794 0
537 -903 -534 0
-537 903 0
-537 534 0
538 -755 -733 0
-538 755 0
-538 733 0
539 -538 -778 0
-539 538 0
-539 778 0
540 -904 -537 0
-540 904 0
-540 537 0
541 -12 -729 0
-541 12 0
-541 729 0
542 -541 -36 0
-542 541 0
-542 36 0
543 -905 -540 0
-543 905 0
-543 540 0
544 -50 -694 0
-544 50 0
-544 694 0
545 -544 -34 0
-545 544 0
-545 34 0
546 -906 -543 0
-546 906 0
-546 543 0
547 -794 -689 0
-547 794 0
-547 689 0
548 -547 -31 0
-548 547 0
-548 31 0
549 -907 -546 0
-549 907 0
-549 546 0
550 -330 -10 0
-550 330 0
-550 10 0
551 -908 -549 0
-551 908 0
-551 549 0
552 -25 -21 0
-552 25 0
-552 21 0
553 -552 -827 0
-553 552 0
-553 827 0
554 -909 -551 0
-554 909 0
-554 551 0
555 -44 -30 0
-555 44 0
-555 30 0
556 -555 -741 0
-556 555 0
-556 741 0
557 -910 -554 0
-557 910 0
-557 554 0
558 -725 -22 0
-558 725 0
-558 22 0
559 -558 -44 0
-559 558 0
-559 44 0
560 -911 -557 0
-560 911 0
-560 557 0
561 -747 -4 0
-561 747 0
-561 4 0
562 -561 -42 0
-562 561 0
-562 42 0
563 -912 -560 0
-563 912 0
-563 560 0
564 -39 -729 0
-564 39 0
-564 729 0
565 -564 -723 0
-565 564 0
-565 723 0
566 -913 -563 0
-566 913 0
-566 563 0
567 -22 -11 0
-567 22 0
-567 11 0
568 -567 -711 0
-568 567 0
-568 711 0
569 -914 -566 0
-569 914 0
-569 566 0
570 -796 -696 0
-570 796 0
-570 696 0
571 -570 -34 0
-571 570 0
-571 34 0
572 -915 -569 0
-572 915 0
-572 569 0
573 -747 -699 0
-573 747 0
-573 699 0
574 -573 -796 0
-574 573 0
-574 796 0
575 -916 -572 0
-575 916 0
-575 572 0
576 -424 -43 0
-576 424 0
-576 43 0
577 -917 -575 0
-577 917 0
-577 575 0
578 -13 -744 0
-578 13 0
-578 744 0
579 -578 -42 0
-579 578 0
-579 42 0
580 -918 -577 0
-580 918 0
-580 577 0
581 -702 -744 0
-581 702 0
-581 744 0
582 -581 -18 0
-582 581 0
-582 18 0
583 -919 -580 0
-583 919 0
-583 580 0
584 -53 -17 0
-584 53 0
-584 17 0
585 -920 -583 0
-585 920 0
-585 583 0
586 -14 -716 0
-586 14 0
-586 716 0
587 -586 -776 0
-587 586 0
-587 776 0
588 -921 -585 0
-588 921 0
-588 585 0
589 -46 -729 0
-589 46 0
-589 729 0
590 -589 -35 0
-590 589 0
-590 35 0
591 -922 -588 0
-591 922 0
-591 588 0
592 -5 -4 0
-592 5 0
-592 4 0
593 -592 -827 0
-593 592 0
-593 827 0
594 -923 -591 0
-594 923 0
-594 591 0
595 -42 -739 0
-595 42 0
-595 739 0
596 -595 -37 0
-596 595 0
-596 37 0
597 -924 -594 0
-597 924 0
-597 594 0
598 -49 -691 0
-598 49 0
-598 691 0
599 -598 -703 0
-599 598 0
-599 703 0
600 -925 -597 0
-600 925 0
-600 597 0
601 -48 -694 0
-601 48 0
-601 694 0
602 -601 -15 0
-602 601 0
-602 15 0
603 -926 -600 0
-603 926 0
-603 600 0
604 -705 -765 0
-604 705 0
-604 765 0
605 -604 -723 0
-605 604 0
-605 723 0
606 -927 -603 0
-606 927 0
-606 603 0
607 -822 -26 0
-607 822 0
-607 26 0
608 -607 -727 0
-608 607 0
-608 727 0
609 -928 -606 0
-609 928 0
-609 606 0
610 -769 -26 0
-610 769 0
-610 26 0
611 -610 -3 0
-611 610 0
-611 3 0
612 -929 -609 0
-612 929 0
-612 609 0
613 -842 -689 0
-613 842 0
-613 689 0
614 -613 -776 0
-614 613 0
-614 776 0
615 -930 -612 0
-615 930 0
-615 612 0
616 -49 -11 0
-616 49 0
-616 11 0
617 -616 -803 0
-617 616 0
-617 803 0
618 -931 -615 0
-618 931 0
-618 615 0
619 -38 -690 0
-619 38 0
-619 690 0
620 -619 -725 0
-620 619 0
-620 725 0
621 -932 -618 0
-621 932 0
-621 618 0
622 -33 -711 0
-622 33 0
-622 711 0
623 -622 -34 0
-623 622 0
-623 34 0
624 -933 -621 0
-624 933 0
-624 621 0
625 -822 -4 0
-625 822 0
-625 4 0
626 -625 -15 0
-626 625 0
-626 15 0
627 -934 -624 0
-627 934 0
-627 624 0
628 -14 -1 0
-628 14 0
-628 1 0
629 -628 -13 0
-629 628 0
-629 13 0
630 -935 -627 0
-630 935 0
-630 627 0
631 -4 -689 0
-631 4 0
-631 689 0
632 -631 -6 0
-632 631 0
-632 6 0
633 -936 -630 0
-633 936 0
-633 630 0
634 -119 -794 0
-634 119 0
-634 794 0
635 -937 -633 0
-635 937 0
-635 633 0
636 -35 -699 0
-636 35 0
-636 699 0
637 -636 -31 0
-637 636 0
-637 31 0
638 -938 -635 0
-638 938 0
-638 635 0
639 -421 -37 0
-639 421 0
-639 37 0
640 -939 -638 0
-640 939 0
-640 638 0
641 -44 -8 0
-641 44 0
-641 8 0
642 -641 -43 0
-642 641 0
-642 43 0
643 -940 -640 0
-643 940 0
-643 640 0
644 -842 -9 0
-644 842 0
-644 9 0
645 -644 -723 0
-645 644 0
-645 723 0
646 -941 -643 0
-646 941 0
-646 643 0
647 -780 -739 0
-647 780 0
-647 739 0
648 -647 -759 0
-648 647 0
-648 759 0
649 -942 -646 0
-649 942 0
-649 646 0
650 -45 -4 0
-650 45 0
-650 4 0
651 -650 -48 0
-651 650 0
-651 48 0
652 -943 -649 0
-652 943 0
-652 649 0
653 -796 -729 0
-653 796 0
-653 729 0
654 -653 -43 0
-654 653 0
-654 43 0
655 -944 -652 0
-655 944 0
-655 652 0
656 -720 -12 0
-656 720 0
-656 12 0
657 -656 -759 0
-657 656 0
-657 759 0
658 -945 -655 0
-658 945 0
-658 655 0
659 -699 -689 0
-659 699 0
-659 689 0
660 -659 -34 0
-660 659 0
-660 34 0
661 -946 -658 0
-661 946 0
-661 658 0
662 -45 -7 0
-662 45 0
-662 7 0
663 -662 -20 0
-663 662 0
-663 20 0
664 -947 -661 0
-664 947 0
-664 661 0
665 -25 -705 0
-665 25 0
-665 705 0
666 -665 -2 0
-666 665 0
-666 2 0
667 -948 -664 0
-667 948 0
-667 664 0
668 -702 -739 0
-668 702 0
-668 739 0
669 -668 -776 0
-669 668 0
-669 776 0
670 -949 -667 0
-670 949 0
-670 667 0
671 -50 -22 0
-671 50 0
-671 22 0
672 -671 -741 0
-672 671 0
-672 741 0
673 -950 -670 0
-673 950 0
-673 670 0
674 -769 -15 0
-674 769 0
-674 15 0
675 -674 -827 0
-675 674 0
-675 827 0
676 -951 -673 0
-676 951 0
-676 673 0
677 -46 -757 0
-677 46 0
-677 757 0
678 -677 -725 0
-678 677 0
-678 725 0
679 -952 -676 0
-679 952 0
-679 676 0
680 -9 -8 0
-680 9 0
-680 8 0
681 -680 -764 0
-681 680 0
-681 764 0
682 -953 -679 0
-682 953 0
-682 679 0
683 -26 -17 0
-683 26 0
-683 17 0
684 -683 -35 0
-684 683 0
-684 35 0
685 -954 -682 0
-685 954 0
-685 682 0
686 -42 -16 0
-686 42 0
-686 16 0
687 -686 -27 0
-687 686 0
-687 27 0
688 -955 -685 0
-688 955 0
-688 685 0
-689 -1 0
689 1 0
-690 -5 0
690 5 0
-691 -6 0
691 6 0
-692 -54 0
692 54 0
-693 -52 0
693 52 0
-694 -7 0
694 7 0
-695 -57 0
695 57 0
-696 -9 0
696 9 0
-697 -60 0
697 60 0
-698 -63 0
698 63 0
-699 -14 0
699 14 0
-700 -66 0
700 66 0
-701 -17 0
701 17 0
-702 -16 0
702 16 0
-703 -18 0
703 18 0
-704 -69 0
704 69 0
-705 -20 0
705 20 0
-706 -19 0
706 19 0
-707 -21 0
707 21 0
-708 -72 0
708 72 0
-709 -22 0
709 22 0
-710 -75 0
710 75 0
-711 -25 0
711 25 0
-712 -78 0
712 78 0
-713 -81 0
713 81 0
-714 -84 0
714 84 0
-715 -87 0
715 87 0
-716 -10 0
716 10 0
-717 -90 0
717 90 0
-718 -28 0
718 28 0
-719 -93 0
719 93 0
-720 -23 0
720 23 0
-721 -96 0
721 96 0
-722 -99 0
722 99 0
-723 -30 0
723 30 0
-724 -102 0
724 102 0
-725 -24 0
725 24 0
-726 -13 0
726 13 0
-727 -31 0
727 31 0
-728 -105 0
728 105 0
-729 -4 0
729 4 0
-730 -32 0
730 32 0
-731 -108 0
731 108 0
-732 -111 0
732 111 0
-733 -33 0
733 33 0
-734 -114 0
734 114 0
-735 -34 0
735 34 0
-736 -117 0
736 117 0
-737 -35 0
737 35 0
-738 -120 0
738 120 0
-739 -11 0
739 11 0
-740 -123 0
740 123 0
-741 -37 0
741 37 0
-742 -126 0
742 126 0
-743 -129 0
743 129 0
-744 -12 0
744 12 0
-745 -132 0
745 132 0
-746 -135 0
746 135 0
-747 -39 0
747 39 0
-748 -138 0
748 138 0
-749 -141 0
749 141 0
-750 -144 0
750 144 0
-751 -38 0
751 38 0
-752 -147 0
752 147 0
-753 -150 0
753 150 0
-754 -153 0
754 153 0
-755 -45 0
755 45 0
-756 -156 0
756 156 0
-757 -8 0
757 8 0
-758 -159 0
758 159 0
-759 -27 0
759 27 0
-760 -162 0
760 162 0
-761 -165 0
761 165 0
-762 -46 0
762 46 0
-763 -168 0
763 168 0
-764 -42 0
764 42 0
-765 -2 0
765 2 0
-766 -171 0
766 171 0
-767 -174 0
767 174 0
-768 -177 0
768 177 0
-769 -47 0
769 47 0
-770 -180 0
770 180 0
-771 -183 0
771 183 0
-772 -186 0
772 186 0
-773 -49 0
773 49 0
-774 -189 0
774 189 0
-775 -192 0
775 192 0
-776 -41 0
776 41 0
-777 -195 0
777 195 0
-778 -43 0
778 43 0
-779 -198 0
779 198 0
-780 -48 0
780 48 0
-781 -201 0
781 201 0
-782 -203 0
782 203 0
-783 -206 0
783 206 0
-784 -209 0
784 209 0
-785 -212 0
785 212 0
-786 -215 0
786 215 0
-787 -218 0
787 218 0
-788 -221 0
788 221 0
-789 -224 0
789 224 0
-790 -227 0
790 227 0
-791 -230 0
791 230 0
-792 -233 0
792 233 0
-793 -235 0
793 235 0
-794 -3 0
794 3 0
-795 -238 0
795 238 0
-796 -26 0
796 26 0
-797 -241 0
797 241 0
-798 -244 0
798 244 0
-799 -247 0
799 247 0
-800 -250 0
800 250 0
-801 -253 0
801 253 0
-802 -256 0
802 256 0
-803 -29 0
803 29 0
-804 -259 0
804 259 0
-805 -262 0
805 262 0
-806 -265 0
806 265 0
-807 -268 0
807 268 0
-808 -271 0
808 271 0
-809 -274 0
809 274 0
-810 -277 0
810 277 0
-811 -280 0
811 280 0
-812 -283 0
812 283 0
-813 -44 0
813 44 0
-814 -286 0
814 286 0
-815 -289 0
815 289 0
-816 -292 0
816 292 0
-817 -295 0
817 295 0
-818 -298 0
818 298 0
-819 -50 0
819 50 0
-820 -301 0
820 301 0
-821 -304 0
821 304 0
-822 -36 0
822 36 0
-823 -307 0
823 307 0
-824 -310 0
824 310 0
-825 -313 0
825 313 0
-826 -316 0
826 316 0
-827 -40 0
827 40 0
-828 -319 0
828 319 0
-829 -322 0
829 322 0
-830 -325 0
830 325 0
-831 -328 0
831 328 0
-832 -331 0
832 331 0
-833 -334 0
833 334 0
-834 -337 0
834 337 0
-835 -340 0
835 340 0
-836 -343 0
836 343 0
-837 -346 0
837 346 0
-838 -349 0
838 349 0
-839 -352 0
839 352 0
-840 -355 0
840 355 0
-841 -358 0
841 358 0
-842 -15 0
842 15 0
-843 -361 0
843 361 0
-844 -364 0
844 364 0
-845 -367 0
845 367 0
-846 -370 0
846 370 0
-847 -373 0
847 373 0
-848 -376 0
848 376 0
-849 -379 0
849 379 0
-850 -382 0
850 382 0
-851 -385 0
851 385 0
-852 -388 0
852 388 0
-853 -390 0
853 390 0
-854 -392 0
854 392 0
-855 -395 0
855 395 0
-856 -398 0
856 398 0
-857 -401 0
857 401 0
-858 -404 0
858 404 0
-859 -407 0
859 407 0
-860 -410 0
860 410 0
-861 -413 0
861 413 0
-862 -416 0
862 416 0
-863 -419 0
863 419 0
-864 -422 0
864 422 0
-865 -425 0
865 425 0
-866 -428 0
866 428 0
-867 -431 0
867 431 0
-868 -434 0
868 434 0
-869 -437 0
869 437 0
-870 -440 0
870 440 0
-871 -443 0
871 443 0
-872 -446 0
872 446 0
-873 -449 0
873 449 0
-874 -452 0
874 452 0
-875 -455 0
875 455 0
-876 -458 0
876 458 0
-877 -461 0
877 461 0
-878 -464 0
878 464 0
-879 -467 0
879 467 0
-880 -470 0
880 470 0
-881 -473 0
881 473 0
-882 -476 0
882 476 0
-883 -478 0
883 478 0
-884 -481 0
884 481 0
-885 -484 0
885 484 0
-886 -487 0
886 487 0
-887 -490 0
887 490 0
-888 -493 0
888 493 0
-889 -496 0
889 496 0
-890 -498 0
890 498 0
-891 -501 0
891 501 0
-892 -504 0
892 504 0
-893 -507 0
893 507 0
-894 -509 0
894 509 0
-895 -512 0
895 512 0
-896 -515 0
896 515 0
-897 -518 0
897 518 0
-898 -521 0
898 521 0
-899 -524 0
899 524 0
-900 -527 0
900 527 0
-901 -530 0
901 530 0
-902 -533 0
902 533 0
-903 -536 0
903 536 0
-904 -539 0
904 539 0
-905 -542 0
905 542 0
-906 -545 0
906 545 0
-907 -548 0
907 548 0
-908 -550 0
908 550 0
-909 -553 0
909 553 0
-910 -556 0
910 556 0
-911 -559 0
911 559 0
-912 -562 0
912 562 0
-913 -565 0
913 565 0
-914 -568 0
914 568 0
-915 -571 0
915 571 0
-916 -574 0
916 574 0
-917 -576 0
917 576 0
-918 -579 0
918 579 0
-919 -582 0
919 582 0
-920 -584 0
920 584 0
-921 -587 0
921 587 0
-922 -590 0
922 590 0
-923 -593 0
923 593 0
-924 -596 0
924 596 0
-925 -599 0
925 599 0
-926 -602 0
926 602 0
-927 -605 0
927 605 0
-928 -608 0
928 608 0
-929 -611 0
929 611 0
-930 -614 0
930 614 0
-931 -617 0
931 617 0
-932 -620 0
932 620 0
-933 -623 0
933 623 0
-934 -626 0
934 626 0
-935 -629 0
935 629 0
-936 -632 0
936 632 0
-937 -634 0
937 634 0
-938 -637 0
938 637 0
-939 -639 0
939 639 0
-940 -642 0
940 642 0
-941 -645 0
941 645 0
-942 -648 0
942 648 0
-943 -651 0
943 651 0
-944 -654 0
944 654 0
-945 -657 0
945 657 0
-946 -660 0
946 660 0
-947 -663 0
947 663 0
-948 -666 0
948 666 0
-949 -669 0
949 669 0
-950 -672 0
950 672 0
-951 -675 0
951 675 0
-952 -678 0
952 678 0
-953 -681 0
953 681 0
-954 -684 0
954 684 0
-955 -687 0
955 687 0
688 0
